Solver command line: ['C:\\Program Files\\IBM\\ILOG\\CPLEX_Studio2211\\cplex\\bin\\x64_win64\\cplex.exe']


Welcome to IBM(R) ILOG(R) CPLEX(R) Interactive Optimizer 22.1.1.0
  with Simplex, Mixed Integer & Barrier Optimizers
5725-A06 5725-A29 5724-Y48 5724-Y49 5724-Y54 5724-Y55 5655-Y21
Copyright IBM Corp. 1988, 2022.  All Rights Reserved.

Type 'help' for a list of available commands.
Type 'help' followed by a command name for more
information on commands.

CPLEX> Logfile 'cplex.log' closed.
Logfile 'C:\Users\wangy\Documents\GitHub\re_optimization\result_site_specific\tmpblcz4dn0.cplex.log' open.
CPLEX> Problem 'C:\Users\wangy\Documents\GitHub\re_optimization\result_site_specific\tmp3024h6xg.pyomo.lp' read.
Read time = 0.31 sec. (9.13 ticks)
CPLEX> Problem name         : C:\Users\wangy\Documents\GitHub\re_optimization\result_site_specific\tmp3024h6xg.pyomo.lp
Objective sense      : Minimize
Variables            :   65769  [Nneg: 35068,  Free: 8792,  Binary: 9,
                                 Other: 21900]
Objective nonzeros   :      17
Linear constraints   :   87665  [Less: 46741,  Greater: 5,  Equal: 40919]
  Nonzeros           :  225068
  RHS nonzeros       :    2932

Variables            : Min LB: 0.000000         Max UB: 1.000000       
Objective nonzeros   : Min   : 1.000000         Max   : 1.000000       
Linear constraints   :
  Nonzeros           : Min   : 0.002729673      Max   : 100000.0       
  RHS nonzeros       : Min   : 0.06000000       Max   : 100000.0       
CPLEX> Version identifier: 22.1.1.0 | 2022-11-27 | 9160aff4d
Tried aggregator 3 times.
MIP Presolve eliminated 54458 rows and 34016 columns.
Aggregator did 11071 substitutions.
Reduced MIP has 22136 rows, 20682 columns, and 66788 nonzeros.
Reduced MIP has 5 binaries, 0 generals, 0 SOSs, and 0 indicators.
Presolve time = 0.19 sec. (225.30 ticks)
Found incumbent of value 293333.565778 after 0.28 sec. (319.70 ticks)
Probing time = 0.02 sec. (1.11 ticks)
Tried aggregator 1 time.
Detecting symmetries...
Reduced MIP has 22136 rows, 20682 columns, and 66788 nonzeros.
Reduced MIP has 5 binaries, 0 generals, 0 SOSs, and 0 indicators.
Presolve time = 0.03 sec. (43.18 ticks)
Probing time = 0.02 sec. (1.04 ticks)
MIP emphasis: balance optimality and feasibility.
MIP search method: dynamic search.
Parallel mode: deterministic, using up to 16 threads.
Root relaxation solution time = 1.45 sec. (947.46 ticks)

        Nodes                                         Cuts/
   Node  Left     Objective  IInf  Best Integer    Best Bound    ItCnt     Gap

*     0+    0                       293333.5658    -7844.8201           102.67%
      0     0     9682.3971     1   293333.5658     9682.3971       77   96.70%
*     0+    0                        11286.8196     9682.3971            14.22%
      0     0        cutoff          11286.8196    11286.8196      271    0.00%
Elapsed time = 2.11 sec. (1661.83 ticks, tree = 0.01 MB, solutions = 2)

Mixed integer rounding cuts applied:  437

Root node processing (before b&c):
  Real time             =    2.11 sec. (1664.53 ticks)
Parallel b&c, 16 threads:
  Real time             =    0.00 sec. (0.00 ticks)
  Sync time (average)   =    0.00 sec.
  Wait time (average)   =    0.00 sec.
                          ------------
Total (root+branch&cut) =    2.11 sec. (1664.53 ticks)

Solution pool: 2 solutions saved.

MIP - Integer optimal solution:  Objective =  1.1286819612e+04
Solution time =    2.11 sec.  Iterations = 271  Nodes = 0
Deterministic time = 1664.72 ticks  (789.34 ticks/sec)

CPLEX> Incumbent solution written to file 'C:\Users\wangy\Documents\GitHub\re_optimization\result_site_specific\tmpafzax20u.cplex.sol'.
CPLEX> 
